(benchmark gametime
:status unknown
:logic QF_AUFBV
:extrafuns ((gtINDEX112  BitVec[32]))
:extrafuns ((gtFIELD__bitsForTID0__gtAGG____anonstruct_D_Work_4  Array[32:32]))
:extrafuns ((gtINDEX113  BitVec[32]))
:extrafuns ((gtAGG__rtDWork  BitVec[32]))
:extrafuns ((gtINDEX110  BitVec[32]))
:extrafuns ((gtINDEX111  BitVec[32]))
:extrafuns ((gtINDEX108  BitVec[32]))
:extrafuns ((gtINDEX109  BitVec[32]))
:extrafuns ((gtINDEX106  BitVec[32]))
:extrafuns ((gtINDEX107  BitVec[32]))
:extrafuns ((gtINDEX105  BitVec[32]))
:extrafuns ((gtINDEX104  BitVec[32]))
:extrafuns ((gtINDEX103  BitVec[32]))
:extrafuns ((gtINDEX102  BitVec[32]))
:extrafuns ((gtINDEX100  BitVec[32]))
:extrafuns ((gtINDEX101  BitVec[32]))
:extrafuns ((gtINDEX98  BitVec[32]))
:extrafuns ((gtINDEX99  BitVec[32]))
:extrafuns ((gtINDEX97  BitVec[32]))
:extrafuns ((gtINDEX95  BitVec[32]))
:extrafuns ((gtINDEX96  BitVec[32]))
:extrafuns ((gtINDEX93  BitVec[32]))
:extrafuns ((gtINDEX94  BitVec[32]))
:extrafuns ((gtINDEX92  BitVec[32]))
:extrafuns ((gtINDEX91  BitVec[32]))
:extrafuns ((gtINDEX89  BitVec[32]))
:extrafuns ((gtINDEX90  BitVec[32]))
:extrafuns ((gtINDEX87  BitVec[32]))
:extrafuns ((gtINDEX88  BitVec[32]))
:extrafuns ((gtINDEX85  BitVec[32]))
:extrafuns ((gtINDEX86  BitVec[32]))
:extrafuns ((gtINDEX84  BitVec[32]))
:extrafuns ((gtINDEX82  BitVec[32]))
:extrafuns ((gtINDEX83  BitVec[32]))
:extrafuns ((gtINDEX80  BitVec[32]))
:extrafuns ((gtINDEX81  BitVec[32]))
:extrafuns ((gtINDEX78  BitVec[32]))
:extrafuns ((gtINDEX79  BitVec[32]))
:extrafuns ((gtINDEX76  BitVec[32]))
:extrafuns ((gtINDEX77  BitVec[32]))
:extrafuns ((gtINDEX75  BitVec[32]))
:extrafuns ((gtINDEX73  BitVec[32]))
:extrafuns ((gtINDEX74  BitVec[32]))
:extrafuns ((gtINDEX71  BitVec[32]))
:extrafuns ((gtINDEX72  BitVec[32]))
:extrafuns ((gtINDEX69  BitVec[32]))
:extrafuns ((gtINDEX70  BitVec[32]))
:extrafuns ((gtINDEX67  BitVec[32]))
:extrafuns ((gtINDEX68  BitVec[32]))
:extrafuns ((gtINDEX66  BitVec[32]))
:extrafuns ((gtINDEX64  BitVec[32]))
:extrafuns ((gtINDEX65  BitVec[32]))
:extrafuns ((gtINDEX63  BitVec[32]))
:extrafuns ((gtINDEX62  BitVec[32]))
:extrafuns ((gtINDEX60  BitVec[32]))
:extrafuns ((gtINDEX61  BitVec[32]))
:extrafuns ((gtINDEX58  BitVec[32]))
:extrafuns ((gtINDEX59  BitVec[32]))
:extrafuns ((gtINDEX56  BitVec[32]))
:extrafuns ((gtINDEX57  BitVec[32]))
:extrafuns ((gtINDEX54  BitVec[32]))
:extrafuns ((gtINDEX55  BitVec[32]))
:extrafuns ((gtINDEX52  BitVec[32]))
:extrafuns ((gtINDEX53  BitVec[32]))
:extrafuns ((gtINDEX50  BitVec[32]))
:extrafuns ((gtINDEX51  BitVec[32]))
:extrafuns ((gtINDEX49  BitVec[32]))
:extrafuns ((gtINDEX48  BitVec[32]))
:extrafuns ((gtINDEX46  BitVec[32]))
:extrafuns ((gtINDEX47  BitVec[32]))
:extrafuns ((gtINDEX44  BitVec[32]))
:extrafuns ((gtINDEX45  BitVec[32]))
:extrafuns ((gtINDEX42  BitVec[32]))
:extrafuns ((gtINDEX43  BitVec[32]))
:extrafuns ((gtINDEX40  BitVec[32]))
:extrafuns ((gtINDEX41  BitVec[32]))
:extrafuns ((gtINDEX38  BitVec[32]))
:extrafuns ((gtINDEX39  BitVec[32]))
:extrafuns ((gtINDEX37  BitVec[32]))
:extrafuns ((gtINDEX35  BitVec[32]))
:extrafuns ((gtINDEX36  BitVec[32]))
:extrafuns ((gtINDEX33  BitVec[32]))
:extrafuns ((gtINDEX34  BitVec[32]))
:extrafuns ((gtINDEX31  BitVec[32]))
:extrafuns ((gtINDEX32  BitVec[32]))
:extrafuns ((gtINDEX29  BitVec[32]))
:extrafuns ((gtINDEX30  BitVec[32]))
:extrafuns ((gtINDEX28  BitVec[32]))
:extrafuns ((gtINDEX26  BitVec[32]))
:extrafuns ((gtINDEX27  BitVec[32]))
:extrafuns ((gtINDEX24  BitVec[32]))
:extrafuns ((gtINDEX25  BitVec[32]))
:extrafuns ((gtINDEX22  BitVec[32]))
:extrafuns ((gtINDEX23  BitVec[32]))
:extrafuns ((gtINDEX20  BitVec[32]))
:extrafuns ((gtINDEX21  BitVec[32]))
:extrafuns ((gtINDEX19  BitVec[32]))
:extrafuns ((gtINDEX17  BitVec[32]))
:extrafuns ((gtINDEX18  BitVec[32]))
:extrafuns ((gtINDEX15  BitVec[32]))
:extrafuns ((gtINDEX16  BitVec[32]))
:extrafuns ((gtINDEX13  BitVec[32]))
:extrafuns ((gtINDEX14  BitVec[32]))
:extrafuns ((gtINDEX11  BitVec[32]))
:extrafuns ((gtINDEX12  BitVec[32]))
:extrafuns ((gtINDEX9  BitVec[32]))
:extrafuns ((gtINDEX10  BitVec[32]))
:extrafuns ((gtINDEX7  BitVec[32]))
:extrafuns ((gtINDEX8  BitVec[32]))
:extrafuns ((gtINDEX6  BitVec[32]))
:extrafuns ((gtINDEX5  BitVec[32]))
:extrafuns ((gtINDEX4  BitVec[32]))
:extrafuns ((gtINDEX3  BitVec[32]))
:extrafuns ((gtINDEX2  BitVec[32]))
:extrafuns ((gtINDEX1  BitVec[32]))
:extrafuns ((gtINDEX0  BitVec[32]))
:extrafuns ((gtFIELD__is_Eng__gtAGG____anonstruct_bitsForTID0_5_1_  Array[32:1]))
:extrafuns ((gtFIELD__is_Eng__gtAGG____anonstruct_bitsForTID0_5_2_  Array[32:1]))
:extrafuns ((sf_previousEvent_1_  BitVec[32]))
:extrafuns ((sfEvent__2_  BitVec[32]))
:extrafuns ((gtFIELD__is_Eng__gtAGG____anonstruct_bitsForTID0_5  Array[32:1]))
:extrafuns ((gtFIELD__sent__gtAGG____anonstruct_D_Work_4_1_  Array[32:32]))
:extrafuns ((gtFIELD__sent__gtAGG____anonstruct_D_Work_4_2_  Array[32:32]))
:extrafuns ((gtFIELD__is_active_Eng__gtAGG____anonstruct_bitsForTID0_5  Array[32:1]))
:extrafuns ((gtFIELD__temporalCounter_i5__gtAGG____anonstruct_D_Work_4  Array[32:32]))
:extrafuns ((gtFIELD__temporalCounter_i5__gtAGG____anonstruct_D_Work_4_1_  Array[32:32]))
:extrafuns ((gtFIELD__is_PURI__gtAGG____anonstruct_bitsForTID0_5  Array[32:2]))
:extrafuns ((gtFIELD__is_PURI__gtAGG____anonstruct_bitsForTID0_5_1_  Array[32:2]))
:extrafuns ((gtFIELD__URIex__gtAGG____anonstruct_bitsForTID0_5  Array[32:1]))
:extrafuns ((gtFIELD__URIex__gtAGG____anonstruct_bitsForTID0_5_1_  Array[32:1]))
:extrafuns ((gtFIELD__sh_rst__gtAGG____anonstruct_D_Work_4  Array[32:32]))
:extrafuns ((gtFIELD__sh_rst__gtAGG____anonstruct_D_Work_4_1_  Array[32:32]))
:extrafuns ((gtFIELD__n_t_a__gtAGG____anonstruct_D_Work_4  Array[32:32]))
:extrafuns ((gtFIELD__n_t_a__gtAGG____anonstruct_D_Work_4_1_  Array[32:32]))
:extrafuns ((sfEvent__1_  BitVec[32]))
:extrafuns ((gtFIELD__is_active_PURI__gtAGG____anonstruct_bitsForTID0_5  Array[32:1]))
:extrafuns ((gtFIELD__is_PVRP__gtAGG____anonstruct_bitsForTID0_5  Array[32:2]))
:extrafuns ((gtFIELD__is_active_PVRP__gtAGG____anonstruct_bitsForTID0_5  Array[32:1]))
:extrafuns ((gtFIELD__is_PPVARP__gtAGG____anonstruct_bitsForTID0_5  Array[32:2]))
:extrafuns ((gtFIELD__is_active_PPVARP__gtAGG____anonstruct_bitsForTID0_5  Array[32:1]))
:extrafuns ((gtFIELD__temporalCounter_i2__gtAGG____anonstruct_D_Work_4  Array[32:32]))
:extrafuns ((gtFIELD__temporalCounter_i2__gtAGG____anonstruct_D_Work_4_1_  Array[32:32]))
:extrafuns ((gtFIELD__is_PLRI__gtAGG____anonstruct_bitsForTID0_5  Array[32:2]))
:extrafuns ((gtFIELD__is_PLRI__gtAGG____anonstruct_bitsForTID0_5_1_  Array[32:2]))
:extrafuns ((gtFIELD__n_t_n__gtAGG____anonstruct_D_Work_4  Array[32:32]))
:extrafuns ((gtFIELD__n_t_n__gtAGG____anonstruct_D_Work_4_1_  Array[32:32]))
:extrafuns ((gtFIELD__is_active_PLRI__gtAGG____anonstruct_bitsForTID0_5  Array[32:1]))
:extrafuns ((gtFIELD__is_PAVI__gtAGG____anonstruct_bitsForTID0_5  Array[32:3]))
:extrafuns ((gtFIELD__is_active_PAVI__gtAGG____anonstruct_bitsForTID0_5  Array[32:1]))
:extrafuns ((sfEvent_  BitVec[32]))
:extrafuns ((gtFIELD__sent__gtAGG____anonstruct_D_Work_4  Array[32:32]))
:extrafuns ((gtFIELD__temporalCounter_i4__gtAGG____anonstruct_D_Work_4  Array[32:32]))
:extrafuns ((gtFIELD__temporalCounter_i4__gtAGG____anonstruct_D_Work_4_1_  Array[32:32]))
:extrafuns ((gtFIELD__temporalCounter_i3__gtAGG____anonstruct_D_Work_4  Array[32:32]))
:extrafuns ((gtFIELD__temporalCounter_i1__gtAGG____anonstruct_D_Work_4  Array[32:32]))
:extrapreds ((constraint197 ))
:extrapreds ((constraint196 ))
:extrapreds ((constraint195 ))
:extrapreds ((constraint194 ))
:extrapreds ((constraint193 ))
:extrapreds ((constraint192 ))
:extrapreds ((constraint191 ))
:extrapreds ((constraint190 ))
:extrapreds ((constraint189 ))
:extrapreds ((constraint188 ))
:extrapreds ((constraint187 ))
:extrapreds ((constraint186 ))
:extrapreds ((constraint185 ))
:extrapreds ((constraint184 ))
:extrapreds ((constraint183 ))
:extrapreds ((constraint182 ))
:extrapreds ((constraint181 ))
:extrapreds ((constraint180 ))
:extrapreds ((constraint179 ))
:extrapreds ((constraint178 ))
:extrapreds ((constraint177 ))
:extrapreds ((constraint176 ))
:extrapreds ((constraint175 ))
:extrapreds ((constraint174 ))
:extrapreds ((constraint173 ))
:extrapreds ((constraint172 ))
:extrapreds ((constraint171 ))
:extrapreds ((constraint170 ))
:extrapreds ((constraint169 ))
:extrapreds ((constraint168 ))
:extrapreds ((constraint167 ))
:extrapreds ((constraint166 ))
:extrapreds ((constraint165 ))
:extrapreds ((constraint164 ))
:extrapreds ((constraint163 ))
:extrapreds ((constraint162 ))
:extrapreds ((constraint161 ))
:extrapreds ((constraint160 ))
:extrapreds ((constraint159 ))
:extrapreds ((constraint158 ))
:extrapreds ((constraint157 ))
:extrapreds ((constraint156 ))
:extrapreds ((constraint155 ))
:extrapreds ((constraint154 ))
:extrapreds ((constraint153 ))
:extrapreds ((constraint152 ))
:extrapreds ((constraint151 ))
:extrapreds ((constraint150 ))
:extrapreds ((constraint149 ))
:extrapreds ((constraint148 ))
:extrapreds ((constraint147 ))
:extrapreds ((constraint146 ))
:extrapreds ((constraint145 ))
:extrapreds ((constraint144 ))
:extrapreds ((constraint143 ))
:extrapreds ((constraint142 ))
:extrapreds ((constraint141 ))
:extrapreds ((constraint140 ))
:extrapreds ((constraint139 ))
:extrapreds ((constraint138 ))
:extrapreds ((constraint137 ))
:extrapreds ((constraint136 ))
:extrapreds ((constraint135 ))
:extrapreds ((constraint134 ))
:extrapreds ((constraint133 ))
:extrapreds ((constraint132 ))
:extrapreds ((constraint131 ))
:extrapreds ((constraint130 ))
:extrapreds ((constraint129 ))
:extrapreds ((constraint128 ))
:extrapreds ((constraint127 ))
:extrapreds ((constraint126 ))
:extrapreds ((constraint125 ))
:extrapreds ((constraint124 ))
:extrapreds ((constraint123 ))
:extrapreds ((constraint122 ))
:extrapreds ((constraint121 ))
:extrapreds ((constraint120 ))
:extrapreds ((constraint119 ))
:extrapreds ((constraint118 ))
:extrapreds ((constraint117 ))
:extrapreds ((constraint116 ))
:extrapreds ((constraint115 ))
:extrapreds ((constraint114 ))
:extrapreds ((constraint113 ))
:extrapreds ((constraint112 ))
:extrapreds ((constraint111 ))
:extrapreds ((constraint110 ))
:extrapreds ((constraint109 ))
:extrapreds ((constraint108 ))
:extrapreds ((constraint107 ))
:extrapreds ((constraint106 ))
:extrapreds ((constraint105 ))
:extrapreds ((constraint104 ))
:extrapreds ((constraint103 ))
:extrapreds ((constraint102 ))
:extrapreds ((constraint101 ))
:extrapreds ((constraint100 ))
:extrapreds ((constraint99 ))
:extrapreds ((constraint98 ))
:extrapreds ((constraint97 ))
:extrapreds ((constraint96 ))
:extrapreds ((constraint95 ))
:extrapreds ((constraint94 ))
:extrapreds ((constraint93 ))
:extrapreds ((constraint92 ))
:extrapreds ((constraint91 ))
:extrapreds ((constraint90 ))
:extrapreds ((constraint89 ))
:extrapreds ((constraint88 ))
:extrapreds ((constraint87 ))
:extrapreds ((constraint86 ))
:extrapreds ((constraint85 ))
:extrapreds ((constraint84 ))
:extrapreds ((constraint83 ))
:extrapreds ((constraint82 ))
:extrapreds ((constraint81 ))
:extrapreds ((constraint80 ))
:extrapreds ((constraint79 ))
:extrapreds ((constraint78 ))
:extrapreds ((constraint77 ))
:extrapreds ((constraint76 ))
:extrapreds ((constraint75 ))
:extrapreds ((constraint74 ))
:extrapreds ((constraint73 ))
:extrapreds ((constraint72 ))
:extrapreds ((constraint71 ))
:extrapreds ((constraint70 ))
:extrapreds ((constraint69 ))
:extrapreds ((constraint68 ))
:extrapreds ((constraint67 ))
:extrapreds ((constraint66 ))
:extrapreds ((constraint65 ))
:extrapreds ((constraint64 ))
:extrapreds ((constraint63 ))
:extrapreds ((constraint62 ))
:extrapreds ((constraint61 ))
:extrapreds ((constraint60 ))
:extrapreds ((constraint59 ))
:extrapreds ((constraint58 ))
:extrapreds ((constraint57 ))
:extrapreds ((constraint56 ))
:extrapreds ((constraint55 ))
:extrapreds ((constraint54 ))
:extrapreds ((constraint53 ))
:extrapreds ((constraint52 ))
:extrapreds ((constraint51 ))
:extrapreds ((constraint50 ))
:extrapreds ((constraint49 ))
:extrapreds ((constraint48 ))
:extrapreds ((constraint47 ))
:extrapreds ((constraint46 ))
:extrapreds ((constraint45 ))
:extrapreds ((constraint44 ))
:extrapreds ((constraint43 ))
:extrapreds ((constraint42 ))
:extrapreds ((constraint41 ))
:extrapreds ((constraint40 ))
:extrapreds ((constraint39 ))
:extrapreds ((constraint38 ))
:extrapreds ((constraint37 ))
:extrapreds ((constraint36 ))
:extrapreds ((constraint35 ))
:extrapreds ((constraint34 ))
:extrapreds ((constraint33 ))
:extrapreds ((constraint32 ))
:extrapreds ((constraint31 ))
:extrapreds ((constraint30 ))
:extrapreds ((constraint29 ))
:extrapreds ((constraint28 ))
:extrapreds ((constraint27 ))
:extrapreds ((constraint26 ))
:extrapreds ((constraint25 ))
:extrapreds ((constraint24 ))
:extrapreds ((constraint23 ))
:extrapreds ((constraint22 ))
:extrapreds ((constraint21 ))
:extrapreds ((constraint20 ))
:extrapreds ((constraint19 ))
:extrapreds ((constraint18 ))
:extrapreds ((constraint17 ))
:extrapreds ((constraint16 ))
:extrapreds ((constraint15 ))
:extrapreds ((constraint14 ))
:extrapreds ((constraint13 ))
:extrapreds ((constraint12 ))
:extrapreds ((constraint11 ))
:extrapreds ((constraint10 ))
:extrapreds ((constraint9 ))
:extrapreds ((constraint8 ))
:extrapreds ((constraint7 ))
:extrapreds ((constraint6 ))
:extrapreds ((constraint5 ))
:extrapreds ((constraint4 ))
:extrapreds ((constraint3 ))
:extrapreds ((constraint2 ))
:extrapreds ((constraint1 ))
:extrapreds ((constraint0 ))
:formula
(flet ($x981 (and constraint0 constraint1 constraint2 constraint3 constraint4 constraint5 constraint6 constraint7 constraint8 constraint9 constraint10 constraint11 constraint12 constraint13 constraint14 constraint15 constraint16 constraint17 constraint18 constraint19 constraint20 constraint21 constraint22 constraint23 constraint24 constraint25 constraint26 constraint27 constraint28 constraint29 constraint30 constraint31 constraint32 constraint33 constraint34 constraint35 constraint36 constraint37 constraint38 constraint39 constraint40 constraint41 constraint42 constraint43 constraint44 constraint45 constraint46 constraint47 constraint48 constraint49 constraint50 constraint51 constraint52 constraint53 constraint54 constraint55 constraint56 constraint57 constraint58 constraint59 constraint60 constraint61 constraint62 constraint63 constraint64 constraint65 constraint66 constraint67 constraint68 constraint69 constraint70 constraint71 constraint72 constraint73 constraint74 constraint75 constraint76 constraint77 constraint78 constraint79 constraint80 constraint81 constraint82 constraint83 constraint84 constraint85 constraint86 constraint87 constraint88 constraint89 constraint90 constraint91 constraint92 constraint93 constraint94 constraint95 constraint96 constraint97 constraint98 constraint99 constraint100 constraint101 constraint102 constraint103 constraint104 constraint105 constraint106 constraint107 constraint108 constraint109 constraint110 constraint111 constraint112 constraint113 constraint114 constraint115 constraint116 constraint117 constraint118 constraint119 constraint120 constraint121 constraint122 constraint123 constraint124 constraint125 constraint126 constraint127 constraint128 constraint129 constraint130 constraint131 constraint132 constraint133 constraint134 constraint135 constraint136 constraint137 constraint138 constraint139 constraint140 constraint141 constraint142 constraint143 constraint144 constraint145 constraint146 constraint147 constraint148 constraint149 constraint150 constraint151 constraint152 constraint153 constraint154 constraint155 constraint156 constraint157 constraint158 constraint159 constraint160 constraint161 constraint162 constraint163 constraint164 constraint165 constraint166 constraint167 constraint168 constraint169 constraint170 constraint171 constraint172 constraint173 constraint174 constraint175 constraint176 constraint177 constraint178 constraint179 constraint180 constraint181 constraint182 constraint183 constraint184 constraint185 constraint186 constraint187 constraint188 constraint189 constraint190 constraint191 constraint192 constraint193 constraint194 constraint195 constraint196 constraint197))
(let (?x582 (select gtFIELD__bitsForTID0__gtAGG____anonstruct_D_Work_4 gtINDEX112))
(let (?x578 (select gtFIELD__bitsForTID0__gtAGG____anonstruct_D_Work_4 gtINDEX110))
(let (?x574 (select gtFIELD__bitsForTID0__gtAGG____anonstruct_D_Work_4 gtINDEX108))
(let (?x570 (select gtFIELD__bitsForTID0__gtAGG____anonstruct_D_Work_4 gtINDEX106))
(let (?x562 (select gtFIELD__bitsForTID0__gtAGG____anonstruct_D_Work_4 gtINDEX100))
(flet ($x559 (= gtINDEX99 (select gtFIELD__bitsForTID0__gtAGG____anonstruct_D_Work_4 gtINDEX98)))
(flet ($x554 (= gtINDEX96 (select gtFIELD__bitsForTID0__gtAGG____anonstruct_D_Work_4 gtINDEX95)))
(flet ($x550 (= gtINDEX94 (select gtFIELD__bitsForTID0__gtAGG____anonstruct_D_Work_4 gtINDEX93)))
(flet ($x544 (= gtINDEX90 (select gtFIELD__bitsForTID0__gtAGG____anonstruct_D_Work_4 gtINDEX89)))
(flet ($x540 (= gtINDEX88 (select gtFIELD__bitsForTID0__gtAGG____anonstruct_D_Work_4 gtINDEX87)))
(flet ($x536 (= gtINDEX86 (select gtFIELD__bitsForTID0__gtAGG____anonstruct_D_Work_4 gtINDEX85)))
(flet ($x531 (= gtINDEX83 (select gtFIELD__bitsForTID0__gtAGG____anonstruct_D_Work_4 gtINDEX82)))
(flet ($x527 (= gtINDEX81 (select gtFIELD__bitsForTID0__gtAGG____anonstruct_D_Work_4 gtINDEX80)))
(flet ($x523 (= gtINDEX79 (select gtFIELD__bitsForTID0__gtAGG____anonstruct_D_Work_4 gtINDEX78)))
(flet ($x519 (= gtINDEX77 (select gtFIELD__bitsForTID0__gtAGG____anonstruct_D_Work_4 gtINDEX76)))
(flet ($x514 (= gtINDEX74 (select gtFIELD__bitsForTID0__gtAGG____anonstruct_D_Work_4 gtINDEX73)))
(flet ($x510 (= gtINDEX72 (select gtFIELD__bitsForTID0__gtAGG____anonstruct_D_Work_4 gtINDEX71)))
(flet ($x506 (= gtINDEX70 (select gtFIELD__bitsForTID0__gtAGG____anonstruct_D_Work_4 gtINDEX69)))
(flet ($x502 (= gtINDEX68 (select gtFIELD__bitsForTID0__gtAGG____anonstruct_D_Work_4 gtINDEX67)))
(flet ($x497 (= gtINDEX65 (select gtFIELD__bitsForTID0__gtAGG____anonstruct_D_Work_4 gtINDEX64)))
(flet ($x491 (= gtINDEX61 (select gtFIELD__bitsForTID0__gtAGG____anonstruct_D_Work_4 gtINDEX60)))
(flet ($x487 (= gtINDEX59 (select gtFIELD__bitsForTID0__gtAGG____anonstruct_D_Work_4 gtINDEX58)))
(flet ($x483 (= gtINDEX57 (select gtFIELD__bitsForTID0__gtAGG____anonstruct_D_Work_4 gtINDEX56)))
(flet ($x479 (= gtINDEX55 (select gtFIELD__bitsForTID0__gtAGG____anonstruct_D_Work_4 gtINDEX54)))
(flet ($x475 (= gtINDEX53 (select gtFIELD__bitsForTID0__gtAGG____anonstruct_D_Work_4 gtINDEX52)))
(flet ($x471 (= gtINDEX51 (select gtFIELD__bitsForTID0__gtAGG____anonstruct_D_Work_4 gtINDEX50)))
(flet ($x465 (= gtINDEX47 (select gtFIELD__bitsForTID0__gtAGG____anonstruct_D_Work_4 gtINDEX46)))
(flet ($x461 (= gtINDEX45 (select gtFIELD__bitsForTID0__gtAGG____anonstruct_D_Work_4 gtINDEX44)))
(flet ($x457 (= gtINDEX43 (select gtFIELD__bitsForTID0__gtAGG____anonstruct_D_Work_4 gtINDEX42)))
(flet ($x453 (= gtINDEX41 (select gtFIELD__bitsForTID0__gtAGG____anonstruct_D_Work_4 gtINDEX40)))
(flet ($x449 (= gtINDEX39 (select gtFIELD__bitsForTID0__gtAGG____anonstruct_D_Work_4 gtINDEX38)))
(flet ($x444 (= gtINDEX36 (select gtFIELD__bitsForTID0__gtAGG____anonstruct_D_Work_4 gtINDEX35)))
(flet ($x440 (= gtINDEX34 (select gtFIELD__bitsForTID0__gtAGG____anonstruct_D_Work_4 gtINDEX33)))
(flet ($x436 (= gtINDEX32 (select gtFIELD__bitsForTID0__gtAGG____anonstruct_D_Work_4 gtINDEX31)))
(flet ($x432 (= gtINDEX30 (select gtFIELD__bitsForTID0__gtAGG____anonstruct_D_Work_4 gtINDEX29)))
(flet ($x427 (= gtINDEX27 (select gtFIELD__bitsForTID0__gtAGG____anonstruct_D_Work_4 gtINDEX26)))
(flet ($x423 (= gtINDEX25 (select gtFIELD__bitsForTID0__gtAGG____anonstruct_D_Work_4 gtINDEX24)))
(flet ($x419 (= gtINDEX23 (select gtFIELD__bitsForTID0__gtAGG____anonstruct_D_Work_4 gtINDEX22)))
(flet ($x415 (= gtINDEX21 (select gtFIELD__bitsForTID0__gtAGG____anonstruct_D_Work_4 gtINDEX20)))
(flet ($x410 (= gtINDEX18 (select gtFIELD__bitsForTID0__gtAGG____anonstruct_D_Work_4 gtINDEX17)))
(flet ($x406 (= gtINDEX16 (select gtFIELD__bitsForTID0__gtAGG____anonstruct_D_Work_4 gtINDEX15)))
(flet ($x402 (= gtINDEX14 (select gtFIELD__bitsForTID0__gtAGG____anonstruct_D_Work_4 gtINDEX13)))
(flet ($x398 (= gtINDEX12 (select gtFIELD__bitsForTID0__gtAGG____anonstruct_D_Work_4 gtINDEX11)))
(flet ($x394 (= gtINDEX10 (select gtFIELD__bitsForTID0__gtAGG____anonstruct_D_Work_4 gtINDEX9)))
(flet ($x390 (= gtINDEX8 (select gtFIELD__bitsForTID0__gtAGG____anonstruct_D_Work_4 gtINDEX7)))
(let (?x367 (extract[0:0] bv1[32]))
(let (?x377 (store gtFIELD__is_Eng__gtAGG____anonstruct_bitsForTID0_5_1_ gtINDEX113 ?x367))
(flet ($x751 (iff constraint83 (= gtFIELD__is_Eng__gtAGG____anonstruct_bitsForTID0_5_2_ ?x377)))
(let (?x373 (select gtFIELD__is_Eng__gtAGG____anonstruct_bitsForTID0_5_1_ gtINDEX111))
(let (?x368 (store gtFIELD__is_Eng__gtAGG____anonstruct_bitsForTID0_5 gtINDEX109 ?x367))
(flet ($x745 (iff constraint80 (= gtFIELD__is_Eng__gtAGG____anonstruct_bitsForTID0_5_1_ ?x368)))
(let (?x363 (select gtFIELD__is_Eng__gtAGG____anonstruct_bitsForTID0_5 gtINDEX107))
(let (?x360 (store gtFIELD__sent__gtAGG____anonstruct_D_Work_4_1_ gtINDEX105 bv0[32]))
(flet ($x741 (iff constraint78 (= gtFIELD__sent__gtAGG____anonstruct_D_Work_4_2_ ?x360)))
(let (?x207 (bvmul bv4294967295[32] bv1[32]))
(flet ($x358 (= (select gtFIELD__sent__gtAGG____anonstruct_D_Work_4_1_ gtINDEX104) ?x207))
(flet ($x354 (= (select gtFIELD__sent__gtAGG____anonstruct_D_Work_4_1_ gtINDEX103) bv9[32]))
(flet ($x349 (= (select gtFIELD__sent__gtAGG____anonstruct_D_Work_4_1_ gtINDEX102) bv4[32]))
(let (?x344 (select gtFIELD__is_Eng__gtAGG____anonstruct_bitsForTID0_5 gtINDEX101))
(let (?x339 (select gtFIELD__is_active_Eng__gtAGG____anonstruct_bitsForTID0_5 gtINDEX99))
(let (?x336 (store gtFIELD__temporalCounter_i5__gtAGG____anonstruct_D_Work_4 gtINDEX97 bv0[32]))
(flet ($x729 (iff constraint72 (= gtFIELD__temporalCounter_i5__gtAGG____anonstruct_D_Work_4_1_ ?x336)))
(let (?x256 (extract[1:0] bv1[32]))
(let (?x333 (store gtFIELD__is_PURI__gtAGG____anonstruct_bitsForTID0_5 gtINDEX96 ?x256))
(flet ($x727 (iff constraint71 (= gtFIELD__is_PURI__gtAGG____anonstruct_bitsForTID0_5_1_ ?x333)))
(let (?x330 (store gtFIELD__URIex__gtAGG____anonstruct_bitsForTID0_5 gtINDEX94 (extract[0:0] bv0[32])))
(flet ($x725 (iff constraint70 (= gtFIELD__URIex__gtAGG____anonstruct_bitsForTID0_5_1_ ?x330)))
(flet ($x327 (= gtFIELD__sh_rst__gtAGG____anonstruct_D_Work_4_1_ (store gtFIELD__sh_rst__gtAGG____anonstruct_D_Work_4 gtINDEX92 bv1[32])))
(flet ($x324 (= gtFIELD__n_t_a__gtAGG____anonstruct_D_Work_4_1_ (store gtFIELD__n_t_a__gtAGG____anonstruct_D_Work_4 gtINDEX91 bv0[32])))
(let (?x319 (select gtFIELD__is_PURI__gtAGG____anonstruct_bitsForTID0_5 gtINDEX90))
(let (?x314 (select gtFIELD__is_PURI__gtAGG____anonstruct_bitsForTID0_5 gtINDEX88))
(let (?x309 (select gtFIELD__is_active_PURI__gtAGG____anonstruct_bitsForTID0_5 gtINDEX86))
(flet ($x306 (= (select gtFIELD__sent__gtAGG____anonstruct_D_Work_4_1_ gtINDEX84) bv0[32]))
(let (?x301 (select gtFIELD__is_PVRP__gtAGG____anonstruct_bitsForTID0_5 gtINDEX83))
(let (?x296 (select gtFIELD__is_PVRP__gtAGG____anonstruct_bitsForTID0_5 gtINDEX81))
(let (?x291 (select gtFIELD__is_PVRP__gtAGG____anonstruct_bitsForTID0_5 gtINDEX79))
(let (?x286 (select gtFIELD__is_active_PVRP__gtAGG____anonstruct_bitsForTID0_5 gtINDEX77))
(flet ($x283 (= (select gtFIELD__sent__gtAGG____anonstruct_D_Work_4_1_ gtINDEX75) bv0[32]))
(let (?x278 (select gtFIELD__is_PPVARP__gtAGG____anonstruct_bitsForTID0_5 gtINDEX74))
(let (?x273 (select gtFIELD__is_PPVARP__gtAGG____anonstruct_bitsForTID0_5 gtINDEX72))
(let (?x268 (select gtFIELD__is_PPVARP__gtAGG____anonstruct_bitsForTID0_5 gtINDEX70))
(let (?x263 (select gtFIELD__is_active_PPVARP__gtAGG____anonstruct_bitsForTID0_5 gtINDEX68))
(let (?x260 (store gtFIELD__temporalCounter_i2__gtAGG____anonstruct_D_Work_4 gtINDEX66 bv0[32]))
(flet ($x689 (iff constraint52 (= gtFIELD__temporalCounter_i2__gtAGG____anonstruct_D_Work_4_1_ ?x260)))
(let (?x257 (store gtFIELD__is_PLRI__gtAGG____anonstruct_bitsForTID0_5 gtINDEX65 ?x256))
(flet ($x687 (iff constraint51 (= gtFIELD__is_PLRI__gtAGG____anonstruct_bitsForTID0_5_1_ ?x257)))
(flet ($x254 (= gtFIELD__n_t_n__gtAGG____anonstruct_D_Work_4_1_ (store gtFIELD__n_t_n__gtAGG____anonstruct_D_Work_4 gtINDEX63 bv0[32])))
(flet ($x248 (= (select gtFIELD__sent__gtAGG____anonstruct_D_Work_4_1_ gtINDEX62) bv0[32]))
(let (?x243 (select gtFIELD__is_PLRI__gtAGG____anonstruct_bitsForTID0_5 gtINDEX61))
(let (?x238 (select gtFIELD__is_active_PLRI__gtAGG____anonstruct_bitsForTID0_5 gtINDEX59))
(let (?x232 (select gtFIELD__is_PAVI__gtAGG____anonstruct_bitsForTID0_5 gtINDEX57))
(let (?x227 (select gtFIELD__is_PAVI__gtAGG____anonstruct_bitsForTID0_5 gtINDEX55))
(let (?x222 (select gtFIELD__is_PAVI__gtAGG____anonstruct_bitsForTID0_5 gtINDEX53))
(let (?x217 (select gtFIELD__is_active_PAVI__gtAGG____anonstruct_bitsForTID0_5 gtINDEX51))
(flet ($x209 (= gtFIELD__sent__gtAGG____anonstruct_D_Work_4_1_ (store gtFIELD__sent__gtAGG____anonstruct_D_Work_4 gtINDEX49 ?x207)))
(flet ($x205 (= (select gtFIELD__sent__gtAGG____anonstruct_D_Work_4 gtINDEX48) bv4[32]))
(let (?x201 (zero_extend[31] (select gtFIELD__is_Eng__gtAGG____anonstruct_bitsForTID0_5 gtINDEX47)))
(let (?x195 (select gtFIELD__is_active_Eng__gtAGG____anonstruct_bitsForTID0_5 gtINDEX45))
(let (?x191 (select gtFIELD__is_PURI__gtAGG____anonstruct_bitsForTID0_5 gtINDEX43))
(let (?x186 (select gtFIELD__is_PURI__gtAGG____anonstruct_bitsForTID0_5 gtINDEX41))
(let (?x181 (select gtFIELD__is_active_PURI__gtAGG____anonstruct_bitsForTID0_5 gtINDEX39))
(flet ($x178 (= (select gtFIELD__sent__gtAGG____anonstruct_D_Work_4 gtINDEX37) bv0[32]))
(let (?x173 (select gtFIELD__is_PVRP__gtAGG____anonstruct_bitsForTID0_5 gtINDEX36))
(let (?x168 (select gtFIELD__is_PVRP__gtAGG____anonstruct_bitsForTID0_5 gtINDEX34))
(let (?x163 (select gtFIELD__is_PVRP__gtAGG____anonstruct_bitsForTID0_5 gtINDEX32))
(let (?x158 (select gtFIELD__is_active_PVRP__gtAGG____anonstruct_bitsForTID0_5 gtINDEX30))
(flet ($x155 (= (select gtFIELD__sent__gtAGG____anonstruct_D_Work_4 gtINDEX28) bv0[32]))
(let (?x150 (select gtFIELD__is_PPVARP__gtAGG____anonstruct_bitsForTID0_5 gtINDEX27))
(let (?x145 (select gtFIELD__is_PPVARP__gtAGG____anonstruct_bitsForTID0_5 gtINDEX25))
(let (?x140 (select gtFIELD__is_PPVARP__gtAGG____anonstruct_bitsForTID0_5 gtINDEX23))
(let (?x135 (select gtFIELD__is_active_PPVARP__gtAGG____anonstruct_bitsForTID0_5 gtINDEX21))
(flet ($x124 (= (select gtFIELD__sent__gtAGG____anonstruct_D_Work_4 gtINDEX19) bv0[32]))
(let (?x119 (select gtFIELD__is_PLRI__gtAGG____anonstruct_bitsForTID0_5 gtINDEX18))
(let (?x114 (select gtFIELD__is_active_PLRI__gtAGG____anonstruct_bitsForTID0_5 gtINDEX16))
(let (?x106 (select gtFIELD__is_PAVI__gtAGG____anonstruct_bitsForTID0_5 gtINDEX14))
(let (?x100 (select gtFIELD__is_PAVI__gtAGG____anonstruct_bitsForTID0_5 gtINDEX12))
(let (?x95 (select gtFIELD__is_PAVI__gtAGG____anonstruct_bitsForTID0_5 gtINDEX10))
(let (?x89 (select gtFIELD__is_active_PAVI__gtAGG____anonstruct_bitsForTID0_5 gtINDEX8))
(let (?x85 (select gtFIELD__temporalCounter_i5__gtAGG____anonstruct_D_Work_4 gtINDEX6))
(let (?x79 (select gtFIELD__temporalCounter_i4__gtAGG____anonstruct_D_Work_4 gtINDEX4))
(let (?x82 (store gtFIELD__temporalCounter_i4__gtAGG____anonstruct_D_Work_4 gtINDEX5 (bvadd ?x79 bv1[32])))
(flet ($x595 (iff constraint5 (= gtFIELD__temporalCounter_i4__gtAGG____anonstruct_D_Work_4_1_ ?x82)))
(let (?x75 (select gtFIELD__temporalCounter_i4__gtAGG____anonstruct_D_Work_4 gtINDEX3))
(let (?x71 (select gtFIELD__temporalCounter_i3__gtAGG____anonstruct_D_Work_4 gtINDEX2))
(let (?x67 (select gtFIELD__temporalCounter_i2__gtAGG____anonstruct_D_Work_4 gtINDEX1))
(let (?x62 (select gtFIELD__temporalCounter_i1__gtAGG____anonstruct_D_Work_4 gtINDEX0))
(flet ($x980 (and (iff constraint0 (= sfEvent_ bv8[32])) (iff constraint1 (not (bvult ?x62 bv4294967295[32]))) (iff constraint2 (not (bvult ?x67 bv4294967295[32]))) (iff constraint3 (not (bvult ?x71 bv4294967295[32]))) (iff constraint4 (bvult ?x75 bv4294967295[32])) $x595 (iff constraint6 (not (bvult ?x85 bv4294967295[32]))) (iff constraint7 (not (= (zero_extend[31] ?x89) bv0[32]))) (iff constraint8 (not (= (zero_extend[29] ?x95) bv1[32]))) (iff constraint9 (not (= (zero_extend[29] ?x100) bv2[32]))) (iff constraint10 (= (zero_extend[29] ?x106) bv3[32])) (iff constraint11 (not (= sfEvent_ bv6[32]))) (iff constraint12 (not (= (zero_extend[31] ?x114) bv0[32]))) (iff constraint13 (= (zero_extend[30] ?x119) bv1[32])) (iff constraint14 (not $x124)) (iff constraint15 (not (= sfEvent_ bv4[32]))) (iff constraint16 (not (= sfEvent_ bv5[32]))) (iff constraint17 (not (= sfEvent_ bv3[32]))) (iff constraint18 (not (= (zero_extend[31] ?x135) bv0[32]))) (iff constraint19 (not (= (zero_extend[30] ?x140) bv1[32]))) (iff constraint20 (not (= (zero_extend[30] ?x145) bv2[32]))) (iff constraint21 (= (zero_extend[30] ?x150) bv3[32])) (iff constraint22 (not $x155)) (iff constraint23 (not (= (zero_extend[31] ?x158) bv0[32]))) (iff constraint24 (not (= (zero_extend[30] ?x163) bv1[32]))) (iff constraint25 (not (= (zero_extend[30] ?x168) bv2[32]))) (iff constraint26 (= (zero_extend[30] ?x173) bv3[32])) (iff constraint27 (not $x178)) (iff constraint28 (not (= (zero_extend[31] ?x181) bv0[32]))) (iff constraint29 (not (= (zero_extend[30] ?x186) bv1[32]))) (iff constraint30 (= (zero_extend[30] ?x191) bv2[32])) (iff constraint31 (not (= sfEvent_ bv4[32]))) (iff constraint32 (not (= sfEvent_ bv5[32]))) (iff constraint33 (not (= (zero_extend[31] ?x195) bv0[32]))) (iff constraint34 (= ?x201 bv1[32])) (iff constraint35 $x205) (iff constraint36 $x209) (iff constraint37 (= sf_previousEvent_1_ sfEvent_)) (iff constraint38 (= sfEvent__1_ bv5[32])) (iff constraint39 (not (= sfEvent__1_ bv8[32]))) (iff constraint40 (not (= (zero_extend[31] ?x217) bv0[32]))) (iff constraint41 (not (= (zero_extend[29] ?x222) bv1[32]))) (iff constraint42 (not (= (zero_extend[29] ?x227) bv2[32]))) (iff constraint43 (= (zero_extend[29] ?x232) bv3[32])) (iff constraint44 (not (= sfEvent__1_ bv6[32]))) (iff constraint45 (not (= (zero_extend[31] ?x238) bv0[32]))) (iff constraint46 (= (zero_extend[30] ?x243) bv1[32])) (iff constraint47 (not $x248)) (iff constraint48 (not (= sfEvent__1_ bv4[32]))) (iff constraint49 (= sfEvent__1_ bv5[32])) (iff constraint50 $x254) $x687 $x689 (iff constraint53 (not (= (zero_extend[31] ?x263) bv0[32]))) (iff constraint54 (not (= (zero_extend[30] ?x268) bv1[32]))) (iff constraint55 (not (= (zero_extend[30] ?x273) bv2[32]))) (iff constraint56 (= (zero_extend[30] ?x278) bv3[32])) (iff constraint57 (not $x283)) (iff constraint58 (not (= (zero_extend[31] ?x286) bv0[32]))) (iff constraint59 (not (= (zero_extend[30] ?x291) bv1[32]))) (iff constraint60 (not (= (zero_extend[30] ?x296) bv2[32]))) (iff constraint61 (= (zero_extend[30] ?x301) bv3[32])) (iff constraint62 (not $x306)) (iff constraint63 (not (= (zero_extend[31] ?x309) bv0[32]))) (iff constraint64 (not (= (zero_extend[30] ?x314) bv1[32]))) (iff constraint65 (= (zero_extend[30] ?x319) bv2[32])) (iff constraint66 (not (= sfEvent__1_ bv4[32]))) (iff constraint67 (= sfEvent__1_ bv5[32])) (iff constraint68 $x324) (iff constraint69 $x327) $x725 $x727 $x729 (iff constraint73 (not (= (zero_extend[31] ?x339) bv0[32]))) (iff constraint74 (= (zero_extend[31] ?x344) bv1[32])) (iff constraint75 (not $x349)) (iff constraint76 (not $x354)) (iff constraint77 $x358) $x741 (iff constraint79 (= (zero_extend[31] ?x363) bv1[32])) $x745 (iff constraint81 (= sfEvent__2_ sf_previousEvent_1_)) (iff constraint82 (= (zero_extend[31] ?x373) bv1[32])) $x751 (iff constraint84 (= gtINDEX0 gtAGG__rtDWork)) (iff constraint85 (= gtINDEX1 gtAGG__rtDWork)) (iff constraint86 (= gtINDEX2 gtAGG__rtDWork)) (iff constraint87 (= gtINDEX3 gtAGG__rtDWork)) (iff constraint88 (= gtINDEX4 gtAGG__rtDWork)) (iff constraint89 (= gtINDEX5 gtAGG__rtDWork)) (iff constraint90 (= gtINDEX6 gtAGG__rtDWork)) (iff constraint91 (= gtINDEX7 gtAGG__rtDWork)) (iff constraint92 $x390) (iff constraint93 (= gtINDEX9 gtAGG__rtDWork)) (iff constraint94 $x394) (iff constraint95 (= gtINDEX11 gtAGG__rtDWork)) (iff constraint96 $x398) (iff constraint97 (= gtINDEX13 gtAGG__rtDWork)) (iff constraint98 $x402) (iff constraint99 (= gtINDEX15 gtAGG__rtDWork)) (iff constraint100 $x406) (iff constraint101 (= gtINDEX17 gtAGG__rtDWork)) (iff constraint102 $x410) (iff constraint103 (= gtINDEX19 gtAGG__rtDWork)) (iff constraint104 (= gtINDEX20 gtAGG__rtDWork)) (iff constraint105 $x415) (iff constraint106 (= gtINDEX22 gtAGG__rtDWork)) (iff constraint107 $x419) (iff constraint108 (= gtINDEX24 gtAGG__rtDWork)) (iff constraint109 $x423) (iff constraint110 (= gtINDEX26 gtAGG__rtDWork)) (iff constraint111 $x427) (iff constraint112 (= gtINDEX28 gtAGG__rtDWork)) (iff constraint113 (= gtINDEX29 gtAGG__rtDWork)) (iff constraint114 $x432) (iff constraint115 (= gtINDEX31 gtAGG__rtDWork)) (iff constraint116 $x436) (iff constraint117 (= gtINDEX33 gtAGG__rtDWork)) (iff constraint118 $x440) (iff constraint119 (= gtINDEX35 gtAGG__rtDWork)) (iff constraint120 $x444) (iff constraint121 (= gtINDEX37 gtAGG__rtDWork)) (iff constraint122 (= gtINDEX38 gtAGG__rtDWork)) (iff constraint123 $x449) (iff constraint124 (= gtINDEX40 gtAGG__rtDWork)) (iff constraint125 $x453) (iff constraint126 (= gtINDEX42 gtAGG__rtDWork)) (iff constraint127 $x457) (iff constraint128 (= gtINDEX44 gtAGG__rtDWork)) (iff constraint129 $x461) (iff constraint130 (= gtINDEX46 gtAGG__rtDWork)) (iff constraint131 $x465) (iff constraint132 (= gtINDEX48 gtAGG__rtDWork)) (iff constraint133 (= gtINDEX49 gtAGG__rtDWork)) (iff constraint134 (= gtINDEX50 gtAGG__rtDWork)) (iff constraint135 $x471) (iff constraint136 (= gtINDEX52 gtAGG__rtDWork)) (iff constraint137 $x475) (iff constraint138 (= gtINDEX54 gtAGG__rtDWork)) (iff constraint139 $x479) (iff constraint140 (= gtINDEX56 gtAGG__rtDWork)) (iff constraint141 $x483) (iff constraint142 (= gtINDEX58 gtAGG__rtDWork)) (iff constraint143 $x487) (iff constraint144 (= gtINDEX60 gtAGG__rtDWork)) (iff constraint145 $x491) (iff constraint146 (= gtINDEX62 gtAGG__rtDWork)) (iff constraint147 (= gtINDEX63 gtAGG__rtDWork)) (iff constraint148 (= gtINDEX64 gtAGG__rtDWork)) (iff constraint149 $x497) (iff constraint150 (= gtINDEX66 gtAGG__rtDWork)) (iff constraint151 (= gtINDEX67 gtAGG__rtDWork)) (iff constraint152 $x502) (iff constraint153 (= gtINDEX69 gtAGG__rtDWork)) (iff constraint154 $x506) (iff constraint155 (= gtINDEX71 gtAGG__rtDWork)) (iff constraint156 $x510) (iff constraint157 (= gtINDEX73 gtAGG__rtDWork)) (iff constraint158 $x514) (iff constraint159 (= gtINDEX75 gtAGG__rtDWork)) (iff constraint160 (= gtINDEX76 gtAGG__rtDWork)) (iff constraint161 $x519) (iff constraint162 (= gtINDEX78 gtAGG__rtDWork)) (iff constraint163 $x523) (iff constraint164 (= gtINDEX80 gtAGG__rtDWork)) (iff constraint165 $x527) (iff constraint166 (= gtINDEX82 gtAGG__rtDWork)) (iff constraint167 $x531) (iff constraint168 (= gtINDEX84 gtAGG__rtDWork)) (iff constraint169 (= gtINDEX85 gtAGG__rtDWork)) (iff constraint170 $x536) (iff constraint171 (= gtINDEX87 gtAGG__rtDWork)) (iff constraint172 $x540) (iff constraint173 (= gtINDEX89 gtAGG__rtDWork)) (iff constraint174 $x544) (iff constraint175 (= gtINDEX91 gtAGG__rtDWork)) (iff constraint176 (= gtINDEX92 gtAGG__rtDWork)) (iff constraint177 (= gtINDEX93 gtAGG__rtDWork)) (iff constraint178 $x550) (iff constraint179 (= gtINDEX95 gtAGG__rtDWork)) (iff constraint180 $x554) (iff constraint181 (= gtINDEX97 gtAGG__rtDWork)) (iff constraint182 (= gtINDEX98 gtAGG__rtDWork)) (iff constraint183 $x559) (iff constraint184 (= gtINDEX100 gtAGG__rtDWork)) (iff constraint185 (= gtINDEX101 ?x562)) (iff constraint186 (= gtINDEX102 gtAGG__rtDWork)) (iff constraint187 (= gtINDEX103 gtAGG__rtDWork)) (iff constraint188 (= gtINDEX104 gtAGG__rtDWork)) (iff constraint189 (= gtINDEX105 gtAGG__rtDWork)) (iff constraint190 (= gtINDEX106 gtAGG__rtDWork)) (iff constraint191 (= gtINDEX107 ?x570)) (iff constraint192 (= gtINDEX108 gtAGG__rtDWork)) (iff constraint193 (= gtINDEX109 ?x574)) (iff constraint194 (= gtINDEX110 gtAGG__rtDWork)) (iff constraint195 (= gtINDEX111 ?x578)) (iff constraint196 (= gtINDEX112 gtAGG__rtDWork)) (iff constraint197 (= gtINDEX113 ?x582))))
(and $x980 $x981)))))))))))))))))))))))))))))))))))))))))))))))))))))))))))))))))))))))))))))))))))))))))))))))))))))))))))))))))))))))))))))))))
)
